c Circuit-CNF generated by TG-PRO v1.0 (c) Huan Chen and Joao Marques-Silva
p cnf 193 450
-1 -2 0
-1 -3 0
1 2 3 0
4 5 0
4 6 0
-4 -5 -6 0
7 8 0
-7 -8 0
9 10 0
-9 -10 0
11 12 0
-11 -12 0
13 14 0
-13 -14 0
15 16 0
-15 -16 0
17 18 0
-17 -18 0
19 20 0
-19 -20 0
21 22 0
-21 -22 0
23 24 0
-23 -24 0
-25 -26 0
-25 -27 0
25 26 27 0
-28 -29 0
-28 -27 0
28 29 27 0
-30 -31 0
-30 -27 0
30 31 27 0
32 33 0
32 34 0
-32 -33 -34 0
35 33 0
35 36 0
-35 -33 -36 0
37 33 0
37 38 0
-37 -33 -38 0
39 33 0
39 40 0
-39 -33 -40 0
-41 -42 0
-41 -43 0
41 42 43 0
-44 -45 0
-44 -46 0
44 45 46 0
-47 -48 0
-47 -49 0
47 48 49 0
-50 -51 0
-50 -52 0
50 51 52 0
53 54 0
-53 -54 0
55 56 0
-55 -56 0
57 58 0
-57 -58 0
59 60 0
-59 -60 0
8 61 0
8 5 0
-8 -61 -5 0
62 63 0
-62 -63 0
2 5 0
-2 -5 0
64 63 0
-64 -63 0
65 66 0
-65 -66 0
67 65 0
-67 -65 0
68 66 0
-68 -66 0
69 7 0
-69 -7 0
-70 -71 0
-70 -72 0
70 71 72 0
73 70 0
-73 -70 0
-74 -75 0
-74 -76 0
74 75 76 0
77 74 0
-77 -74 0
-78 -79 0
-78 -80 0
78 79 80 0
81 78 0
-81 -78 0
-82 -83 0
-82 -84 0
82 83 84 0
85 82 0
-85 -82 0
-86 -87 0
-86 -88 0
86 87 88 0
89 86 0
-89 -86 0
-90 -91 0
-90 -92 0
90 91 92 0
93 90 0
-93 -90 0
94 95 0
94 17 0
-94 -95 -17 0
96 94 0
-96 -94 0
97 98 0
97 94 0
-97 -98 -94 0
99 97 0
-99 -97 0
100 9 0
100 101 0
-100 -9 -101 0
95 100 0
-95 -100 0
102 9 0
102 103 0
-102 -9 -103 0
104 102 0
-104 -102 0
105 9 0
105 106 0
-105 -9 -106 0
107 105 0
-107 -105 0
108 9 0
108 109 0
-108 -9 -109 0
110 108 0
-110 -108 0
33 27 0
-33 -27 0
111 112 0
-111 -112 0
113 111 0
-113 -111 0
-114 -115 0
-114 -116 0
114 115 116 0
34 114 0
-34 -114 0
117 111 0
-117 -111 0
-118 -119 0
-118 -120 0
118 119 120 0
36 118 0
-36 -118 0
121 111 0
-121 -111 0
-122 -123 0
-122 -124 0
122 123 124 0
38 122 0
-38 -122 0
125 111 0
-125 -111 0
-126 -127 0
-126 -128 0
126 127 128 0
40 126 0
-40 -126 0
-112 -7 0
-112 -129 0
112 7 129 0
130 112 0
-130 -112 0
131 8 0
-131 -8 0
132 131 0
-132 -131 0
-133 -134 0
-133 -135 0
133 134 135 0
136 133 0
-136 -133 0
137 131 0
-137 -131 0
-138 -139 0
-138 -140 0
138 139 140 0
141 138 0
-141 -138 0
142 131 0
-142 -131 0
-143 -144 0
-143 -145 0
143 144 145 0
146 143 0
-146 -143 0
147 131 0
-147 -131 0
-148 -149 0
-148 -150 0
148 149 150 0
151 148 0
-151 -148 0
152 129 0
-152 -129 0
153 152 0
-153 -152 0
-54 -154 0
-54 -155 0
54 154 155 0
156 152 0
-156 -152 0
-56 -157 0
-56 -158 0
56 157 158 0
159 152 0
-159 -152 0
-58 -160 0
-58 -161 0
58 160 161 0
162 152 0
-162 -152 0
-60 -163 0
-60 -164 0
60 163 164 0
-129 -165 0
-129 -5 0
129 165 5 0
-71 166 0
-71 23 0
71 -166 -23 0
167 -168 0
167 -23 0
-167 168 23 0
-72 167 0
-72 74 0
72 -167 -74 0
169 -110 0
169 -23 0
-169 110 23 0
-75 85 0
-75 169 0
75 -85 -169 0
-76 110 0
-76 23 0
76 -110 -23 0
-79 170 0
-79 21 0
79 -170 -21 0
171 -172 0
171 -21 0
-171 172 21 0
-80 171 0
-80 82 0
80 -171 -82 0
173 -107 0
173 -21 0
-173 107 21 0
-83 93 0
-83 173 0
83 -93 -173 0
-84 107 0
-84 21 0
84 -107 -21 0
-87 174 0
-87 19 0
87 -174 -19 0
175 -176 0
175 -19 0
-175 176 19 0
-88 175 0
-88 90 0
88 -175 -90 0
177 -104 0
177 -19 0
-177 104 19 0
-91 96 0
-91 177 0
91 -96 -177 0
-92 104 0
-92 19 0
92 -104 -19 0
-115 113 0
-115 77 0
115 -113 -77 0
-116 111 0
-116 23 0
116 -111 -23 0
-119 117 0
-119 73 0
119 -117 -73 0
-120 111 0
-120 21 0
120 -111 -21 0
-123 121 0
-123 81 0
123 -121 -81 0
-124 111 0
-124 19 0
124 -111 -19 0
-127 125 0
-127 89 0
127 -125 -89 0
-128 111 0
-128 17 0
128 -111 -17 0
-42 130 0
-42 136 0
42 -130 -136 0
-43 112 0
-43 99 0
43 -112 -99 0
-45 130 0
-45 141 0
45 -130 -141 0
-46 112 0
-46 15 0
46 -112 -15 0
-48 130 0
-48 146 0
48 -130 -146 0
-49 112 0
-49 13 0
49 -112 -13 0
-51 130 0
-51 151 0
51 -130 -151 0
-52 112 0
-52 11 0
52 -112 -11 0
-134 132 0
-134 178 0
134 -132 -178 0
-135 131 0
-135 15 0
135 -131 -15 0
-139 137 0
-139 179 0
139 -137 -179 0
-140 131 0
-140 13 0
140 -131 -13 0
-144 142 0
-144 180 0
144 -142 -180 0
-145 131 0
-145 11 0
145 -131 -11 0
-149 147 0
-149 181 0
149 -147 -181 0
-150 131 0
-150 9 0
150 -131 -9 0
-154 153 0
-154 182 0
154 -153 -182 0
-155 152 0
-155 109 0
155 -152 -109 0
-157 156 0
-157 183 0
157 -156 -183 0
-158 152 0
-158 106 0
158 -152 -106 0
-160 159 0
-160 184 0
160 -159 -184 0
-161 152 0
-161 103 0
161 -152 -103 0
-163 162 0
-163 185 0
163 -162 -185 0
-164 152 0
-164 101 0
164 -152 -101 0
-186 -7 0
-186 -3 0
186 7 3 0
187 -5 0
187 -186 0
-187 5 186 0
-188 -7 0
-188 -68 0
188 7 68 0
189 -63 0
189 -188 0
-189 63 188 0
190 -66 0
190 -69 0
-190 66 69 0
98 -95 0
98 -17 0
-98 95 17 0
-6 -64 0
-6 -68 0
6 64 68 0
191 5 0
191 186 0
-191 -5 -186 0
26 187 0
26 191 0
-26 -187 -191 0
3 63 0
3 67 0
-3 -63 -67 0
192 63 0
192 188 0
-192 -63 -188 0
29 189 0
29 192 0
-29 -189 -192 0
193 66 0
193 69 0
-193 -66 -69 0
31 190 0
31 193 0
-31 -190 -193 0
-61 66 0
-61 62 0
61 -66 -62 0
165 -66 0
165 -63 0
-165 66 63 0
-166 85 0
-166 110 0
166 -85 -110 0
168 -85 0
168 -110 0
-168 85 110 0
-170 93 0
-170 107 0
170 -93 -107 0
172 -93 0
172 -107 0
-172 93 107 0
-174 96 0
-174 104 0
174 -96 -104 0
176 -96 0
176 -104 0
-176 96 104 0
